2067.17 0
0 84 74 63 33 25 0 
0 15 16 93 54 57 0 
0 2 88 81 56 46 38 37 0 
0 58 70 85 97 13 39 32 0 
0 42 60 53 62 78 82 94 95 100 75 0 
0 71 92 98 6 7 8 12 17 18 31 0 
0 99 96 89 87 86 83 79 67 69 68 50 34 28 22 21 0 
0 91 90 76 73 77 80 72 35 36 19 14 11 10 23 26 30 29 27 24 20 0 
0 5 3 1 4 9 43 47 49 52 51 48 45 44 41 59 55 64 61 66 65 0 
0 40 0 
